(set-logic QF_NRA)
(declare-fun v0 () Real)
(declare-fun th0 () Real)
(declare-fun zp_0_0 () Real)
(declare-fun zq_0_0 () Real)
(declare-fun zp_0_2 () Real)
(declare-fun zq_0_2 () Real)
(declare-fun zp_1_1 () Real)
(declare-fun zq_1_1 () Real)
(declare-fun v2 () Real)
(declare-fun th2 () Real)
(declare-fun zp_2_2 () Real)
(declare-fun zq_2_2 () Real)
(declare-fun v3 () Real)
(declare-fun th3 () Real)
(declare-fun v4 () Real)
(declare-fun zp_3_3 () Real)
(declare-fun zq_3_3 () Real)
(declare-fun zp_3_4 () Real)
(declare-fun zq_3_4 () Real)
(declare-fun th4 () Real)
(declare-fun zp_4_4 () Real)
(declare-fun zq_4_4 () Real)
(assert (<= v0 2))
(assert (>= v0 0))
(assert (<= th0 4))
(assert (>= th0 -4))
(assert (<= zp_0_0 3))
(assert (>= zp_0_0 -3))
(assert (<= zq_0_0 3))
(assert (>= zq_0_0 -3))
(assert (<= zp_0_2 3))
(assert (>= zp_0_2 -3))
(assert (<= zq_0_2 3))
(assert (>= zq_0_2 -3))
(assert (<= zp_1_1 3))
(assert (>= zp_1_1 -3))
(assert (<= zq_1_1 3))
(assert (>= zq_1_1 -3))
(assert (<= v2 2))
(assert (>= v2 0))
(assert (<= th2 4))
(assert (>= th2 -4))
(assert (<= zp_2_2 3))
(assert (>= zp_2_2 -3))
(assert (<= zq_2_2 3))
(assert (>= zq_2_2 -3))
(assert (<= v3 2))
(assert (>= v3 0))
(assert (<= th3 4))
(assert (>= th3 -4))
(assert (<= v4 2))
(assert (>= v4 0))
(assert (<= zp_3_3 3))
(assert (>= zp_3_3 -3))
(assert (<= zq_3_3 3))
(assert (>= zq_3_3 -3))
(assert (<= zp_3_4 3))
(assert (>= zp_3_4 -3))
(assert (<= zq_3_4 3))
(assert (>= zq_3_4 -3))
(assert (<= th4 4))
(assert (>= th4 -4))
(assert (<= zp_4_4 3))
(assert (>= zp_4_4 -3))
(assert (<= zq_4_4 3))
(assert (>= zq_4_4 -3))
(assert (and (and (and (and (and (and (and true (and (= zp_0_0 (* v0 (+ 0 (* v2 (- (- 0 (* 0.037917 (cos (- th0 th2)))) (* 0.053391 (sin (- th0 th2)))))))) (= zq_0_0 (* v0 (+ 0 (* v2 (- (* 0.053391 (cos (- th0 th2))) (* 0.037917 (sin (- th0 th2)))))))))) (and (= zp_0_2 (- (- (* (^ v0 2) 0.037917) (* v0 (* v2 (* 0.037917 (cos (- th0 th2)))))) (* v0 (* v2 (* 0.053391 (sin (- th0 th2))))))) (= zq_0_2 (- (- (- 0 (* (^ v0 2) 0.037917)) (* v0 (* v2 (* 0.053391 (cos (- th0 th2)))))) (* v0 (* v2 (* 0.037917 (sin (- th0 th2))))))))) (and (= zp_1_1 0.000000) (= zq_1_1 0.000000))) (and (= zp_2_2 (* v2 (+ 0 (* v0 (- (- 0 (* 0.037917 (cos (- th2 th0)))) (* 0.053391 (sin (- th2 th0)))))))) (= zq_2_2 (* v2 (+ 0 (* v0 (- (* 0.053391 (cos (- th2 th0))) (* 0.037917 (sin (- th2 th0)))))))))) (and (= zp_3_3 (* v3 (+ 0 (* v4 (- (- 0 (* 0.119952 (cos (- th3 th4)))) (* 0.110905 (sin (- th3 th4)))))))) (= zq_3_3 (* v3 (+ 0 (* v4 (- (* 0.110905 (cos (- th3 th4))) (* 0.119952 (sin (- th3 th4)))))))))) (and (= zp_3_4 (- (- (* (^ v3 2) 0.119952) (* v3 (* v4 (* 0.119952 (cos (- th3 th4)))))) (* v3 (* v4 (* 0.110905 (sin (- th3 th4))))))) (= zq_3_4 (- (- (- 0 (* (^ v3 2) 0.119952)) (* v3 (* v4 (* 0.110905 (cos (- th3 th4)))))) (* v3 (* v4 (* 0.119952 (sin (- th3 th4))))))))) (and (= zp_4_4 (* v4 (+ 0 (* v3 (- (- 0 (* 0.119952 (cos (- th4 th3)))) (* 0.110905 (sin (- th4 th3)))))))) (= zq_4_4 (* v4 (+ 0 (* v3 (- (* 0.110905 (cos (- th4 th3))) (* 0.119952 (sin (- th4 th3)))))))))))
(check-sat)
(exit)
